2940
1    1 12
2    1 23
3    1 34
4    1 45
5    1 56
6    1 67
7    1 78
8    1 89
9    1 100
10   1 2
11   1 3
12   1 4
13   1 5
14   1 6
15   1 7
16   1 8
17   1 9
18   1 10
19   1 11
20   1 21
21   1 31
22   1 41
23   1 51
24   1 61
25   1 71
26   1 81
27   1 91
28   2 13
29   2 24
30   2 35
31   2 46
32   2 57
33   2 68
34   2 79
35   2 90
36   2 11
37   2 3
38   2 4
39   2 5
40   2 6
41   2 7
42   2 8
43   2 9
44   2 10
45   2 12
46   2 22
47   2 32
48   2 42
49   2 52
50   2 62
51   2 72
52   2 82
53   2 92
54   2 1
55   3 14
56   3 25
57   3 36
58   3 47
59   3 58
60   3 69
61   3 80
62   3 12
63   3 21
64   3 4
65   3 5
66   3 6
67   3 7
68   3 8
69   3 9
70   3 10
71   3 13
72   3 23
73   3 33
74   3 43
75   3 53
76   3 63
77   3 73
78   3 83
79   3 93
80   3 2
81   3 1
82   4 15
83   4 26
84   4 37
85   4 48
86   4 59
87   4 70
88   4 13
89   4 22
90   4 31
91   4 5
92   4 6
93   4 7
94   4 8
95   4 9
96   4 10
97   4 14
98   4 24
99   4 34
100  4 44
101  4 54
102  4 64
103  4 74
104  4 84
105  4 94
106  4 3
107  4 2
108  4 1
109  5 16
110  5 27
111  5 38
112  5 49
113  5 60
114  5 14
115  5 23
116  5 32
117  5 41
118  5 6
119  5 7
120  5 8
121  5 9
122  5 10
123  5 15
124  5 25
125  5 35
126  5 45
127  5 55
128  5 65
129  5 75
130  5 85
131  5 95
132  5 4
133  5 3
134  5 2
135  5 1
136  6 17
137  6 28
138  6 39
139  6 50
140  6 15
141  6 24
142  6 33
143  6 42
144  6 51
145  6 7
146  6 8
147  6 9
148  6 10
149  6 16
150  6 26
151  6 36
152  6 46
153  6 56
154  6 66
155  6 76
156  6 86
157  6 96
158  6 5
159  6 4
160  6 3
161  6 2
162  6 1
163  7 18
164  7 29
165  7 40
166  7 16
167  7 25
168  7 34
169  7 43
170  7 52
171  7 61
172  7 8
173  7 9
174  7 10
175  7 17
176  7 27
177  7 37
178  7 47
179  7 57
180  7 67
181  7 77
182  7 87
183  7 97
184  7 6
185  7 5
186  7 4
187  7 3
188  7 2
189  7 1
190  8 19
191  8 30
192  8 17
193  8 26
194  8 35
195  8 44
196  8 53
197  8 62
198  8 71
199  8 9
200  8 10
201  8 18
202  8 28
203  8 38
204  8 48
205  8 58
206  8 68
207  8 78
208  8 88
209  8 98
210  8 7
211  8 6
212  8 5
213  8 4
214  8 3
215  8 2
216  8 1
217  9 20
218  9 18
219  9 27
220  9 36
221  9 45
222  9 54
223  9 63
224  9 72
225  9 81
226  9 10
227  9 19
228  9 29
229  9 39
230  9 49
231  9 59
232  9 69
233  9 79
234  9 89
235  9 99
236  9 8
237  9 7
238  9 6
239  9 5
240  9 4
241  9 3
242  9 2
243  9 1
244  10 19
245  10 28
246  10 37
247  10 46
248  10 55
249  10 64
250  10 73
251  10 82
252  10 91
253  10 20
254  10 30
255  10 40
256  10 50
257  10 60
258  10 70
259  10 80
260  10 90
261  10 100
262  10 9
263  10 8
264  10 7
265  10 6
266  10 5
267  10 4
268  10 3
269  10 2
270  10 1
271  11 22
272  11 33
273  11 44
274  11 55
275  11 66
276  11 77
277  11 88
278  11 99
279  11 12
280  11 13
281  11 14
282  11 15
283  11 16
284  11 17
285  11 18
286  11 19
287  11 20
288  11 21
289  11 31
290  11 41
291  11 51
292  11 61
293  11 71
294  11 81
295  11 91
296  11 2
297  11 1
298  12 23
299  12 34
300  12 45
301  12 56
302  12 67
303  12 78
304  12 89
305  12 100
306  12 21
307  12 13
308  12 14
309  12 15
310  12 16
311  12 17
312  12 18
313  12 19
314  12 20
315  12 22
316  12 32
317  12 42
318  12 52
319  12 62
320  12 72
321  12 82
322  12 92
323  12 11
324  12 3
325  12 2
326  12 1
327  13 24
328  13 35
329  13 46
330  13 57
331  13 68
332  13 79
333  13 90
334  13 22
335  13 31
336  13 14
337  13 15
338  13 16
339  13 17
340  13 18
341  13 19
342  13 20
343  13 23
344  13 33
345  13 43
346  13 53
347  13 63
348  13 73
349  13 83
350  13 93
351  13 12
352  13 11
353  13 4
354  13 3
355  13 2
356  14 25
357  14 36
358  14 47
359  14 58
360  14 69
361  14 80
362  14 23
363  14 32
364  14 41
365  14 15
366  14 16
367  14 17
368  14 18
369  14 19
370  14 20
371  14 24
372  14 34
373  14 44
374  14 54
375  14 64
376  14 74
377  14 84
378  14 94
379  14 13
380  14 12
381  14 11
382  14 5
383  14 4
384  14 3
385  15 26
386  15 37
387  15 48
388  15 59
389  15 70
390  15 24
391  15 33
392  15 42
393  15 51
394  15 16
395  15 17
396  15 18
397  15 19
398  15 20
399  15 25
400  15 35
401  15 45
402  15 55
403  15 65
404  15 75
405  15 85
406  15 95
407  15 14
408  15 13
409  15 12
410  15 11
411  15 6
412  15 5
413  15 4
414  16 27
415  16 38
416  16 49
417  16 60
418  16 25
419  16 34
420  16 43
421  16 52
422  16 61
423  16 17
424  16 18
425  16 19
426  16 20
427  16 26
428  16 36
429  16 46
430  16 56
431  16 66
432  16 76
433  16 86
434  16 96
435  16 15
436  16 14
437  16 13
438  16 12
439  16 11
440  16 7
441  16 6
442  16 5
443  17 28
444  17 39
445  17 50
446  17 26
447  17 35
448  17 44
449  17 53
450  17 62
451  17 71
452  17 18
453  17 19
454  17 20
455  17 27
456  17 37
457  17 47
458  17 57
459  17 67
460  17 77
461  17 87
462  17 97
463  17 16
464  17 15
465  17 14
466  17 13
467  17 12
468  17 11
469  17 8
470  17 7
471  17 6
472  18 29
473  18 40
474  18 27
475  18 36
476  18 45
477  18 54
478  18 63
479  18 72
480  18 81
481  18 19
482  18 20
483  18 28
484  18 38
485  18 48
486  18 58
487  18 68
488  18 78
489  18 88
490  18 98
491  18 17
492  18 16
493  18 15
494  18 14
495  18 13
496  18 12
497  18 11
498  18 9
499  18 8
500  18 7
501  19 30
502  19 28
503  19 37
504  19 46
505  19 55
506  19 64
507  19 73
508  19 82
509  19 91
510  19 20
511  19 29
512  19 39
513  19 49
514  19 59
515  19 69
516  19 79
517  19 89
518  19 99
519  19 18
520  19 17
521  19 16
522  19 15
523  19 14
524  19 13
525  19 12
526  19 11
527  19 10
528  19 9
529  19 8
530  20 29
531  20 38
532  20 47
533  20 56
534  20 65
535  20 74
536  20 83
537  20 92
538  20 30
539  20 40
540  20 50
541  20 60
542  20 70
543  20 80
544  20 90
545  20 100
546  20 19
547  20 18
548  20 17
549  20 16
550  20 15
551  20 14
552  20 13
553  20 12
554  20 11
555  20 10
556  20 9
557  21 32
558  21 43
559  21 54
560  21 65
561  21 76
562  21 87
563  21 98
564  21 22
565  21 23
566  21 24
567  21 25
568  21 26
569  21 27
570  21 28
571  21 29
572  21 30
573  21 31
574  21 41
575  21 51
576  21 61
577  21 71
578  21 81
579  21 91
580  21 12
581  21 11
582  21 3
583  21 1
584  22 33
585  22 44
586  22 55
587  22 66
588  22 77
589  22 88
590  22 99
591  22 31
592  22 23
593  22 24
594  22 25
595  22 26
596  22 27
597  22 28
598  22 29
599  22 30
600  22 32
601  22 42
602  22 52
603  22 62
604  22 72
605  22 82
606  22 92
607  22 21
608  22 13
609  22 12
610  22 11
611  22 4
612  22 2
613  23 34
614  23 45
615  23 56
616  23 67
617  23 78
618  23 89
619  23 100
620  23 32
621  23 41
622  23 24
623  23 25
624  23 26
625  23 27
626  23 28
627  23 29
628  23 30
629  23 33
630  23 43
631  23 53
632  23 63
633  23 73
634  23 83
635  23 93
636  23 22
637  23 21
638  23 14
639  23 13
640  23 12
641  23 5
642  23 3
643  23 1
644  24 35
645  24 46
646  24 57
647  24 68
648  24 79
649  24 90
650  24 33
651  24 42
652  24 51
653  24 25
654  24 26
655  24 27
656  24 28
657  24 29
658  24 30
659  24 34
660  24 44
661  24 54
662  24 64
663  24 74
664  24 84
665  24 94
666  24 23
667  24 22
668  24 21
669  24 15
670  24 14
671  24 13
672  24 6
673  24 4
674  24 2
675  25 36
676  25 47
677  25 58
678  25 69
679  25 80
680  25 34
681  25 43
682  25 52
683  25 61
684  25 26
685  25 27
686  25 28
687  25 29
688  25 30
689  25 35
690  25 45
691  25 55
692  25 65
693  25 75
694  25 85
695  25 95
696  25 24
697  25 23
698  25 22
699  25 21
700  25 16
701  25 15
702  25 14
703  25 7
704  25 5
705  25 3
706  26 37
707  26 48
708  26 59
709  26 70
710  26 35
711  26 44
712  26 53
713  26 62
714  26 71
715  26 27
716  26 28
717  26 29
718  26 30
719  26 36
720  26 46
721  26 56
722  26 66
723  26 76
724  26 86
725  26 96
726  26 25
727  26 24
728  26 23
729  26 22
730  26 21
731  26 17
732  26 16
733  26 15
734  26 8
735  26 6
736  26 4
737  27 38
738  27 49
739  27 60
740  27 36
741  27 45
742  27 54
743  27 63
744  27 72
745  27 81
746  27 28
747  27 29
748  27 30
749  27 37
750  27 47
751  27 57
752  27 67
753  27 77
754  27 87
755  27 97
756  27 26
757  27 25
758  27 24
759  27 23
760  27 22
761  27 21
762  27 18
763  27 17
764  27 16
765  27 9
766  27 7
767  27 5
768  28 39
769  28 50
770  28 37
771  28 46
772  28 55
773  28 64
774  28 73
775  28 82
776  28 91
777  28 29
778  28 30
779  28 38
780  28 48
781  28 58
782  28 68
783  28 78
784  28 88
785  28 98
786  28 27
787  28 26
788  28 25
789  28 24
790  28 23
791  28 22
792  28 21
793  28 19
794  28 18
795  28 17
796  28 10
797  28 8
798  28 6
799  29 40
800  29 38
801  29 47
802  29 56
803  29 65
804  29 74
805  29 83
806  29 92
807  29 30
808  29 39
809  29 49
810  29 59
811  29 69
812  29 79
813  29 89
814  29 99
815  29 28
816  29 27
817  29 26
818  29 25
819  29 24
820  29 23
821  29 22
822  29 21
823  29 20
824  29 19
825  29 18
826  29 9
827  29 7
828  30 39
829  30 48
830  30 57
831  30 66
832  30 75
833  30 84
834  30 93
835  30 40
836  30 50
837  30 60
838  30 70
839  30 80
840  30 90
841  30 100
842  30 29
843  30 28
844  30 27
845  30 26
846  30 25
847  30 24
848  30 23
849  30 22
850  30 21
851  30 20
852  30 19
853  30 10
854  30 8
855  31 42
856  31 53
857  31 64
858  31 75
859  31 86
860  31 97
861  31 32
862  31 33
863  31 34
864  31 35
865  31 36
866  31 37
867  31 38
868  31 39
869  31 40
870  31 41
871  31 51
872  31 61
873  31 71
874  31 81
875  31 91
876  31 22
877  31 21
878  31 13
879  31 11
880  31 4
881  31 1
882  32 43
883  32 54
884  32 65
885  32 76
886  32 87
887  32 98
888  32 41
889  32 33
890  32 34
891  32 35
892  32 36
893  32 37
894  32 38
895  32 39
896  32 40
897  32 42
898  32 52
899  32 62
900  32 72
901  32 82
902  32 92
903  32 31
904  32 23
905  32 22
906  32 21
907  32 14
908  32 12
909  32 5
910  32 2
911  33 44
912  33 55
913  33 66
914  33 77
915  33 88
916  33 99
917  33 42
918  33 51
919  33 34
920  33 35
921  33 36
922  33 37
923  33 38
924  33 39
925  33 40
926  33 43
927  33 53
928  33 63
929  33 73
930  33 83
931  33 93
932  33 32
933  33 31
934  33 24
935  33 23
936  33 22
937  33 15
938  33 13
939  33 11
940  33 6
941  33 3
942  34 45
943  34 56
944  34 67
945  34 78
946  34 89
947  34 100
948  34 43
949  34 52
950  34 61
951  34 35
952  34 36
953  34 37
954  34 38
955  34 39
956  34 40
957  34 44
958  34 54
959  34 64
960  34 74
961  34 84
962  34 94
963  34 33
964  34 32
965  34 31
966  34 25
967  34 24
968  34 23
969  34 16
970  34 14
971  34 12
972  34 7
973  34 4
974  34 1
975  35 46
976  35 57
977  35 68
978  35 79
979  35 90
980  35 44
981  35 53
982  35 62
983  35 71
984  35 36
985  35 37
986  35 38
987  35 39
988  35 40
989  35 45
990  35 55
991  35 65
992  35 75
993  35 85
994  35 95
995  35 34
996  35 33
997  35 32
998  35 31
999  35 26
1000 35 25
1001 35 24
1002 35 17
1003 35 15
1004 35 13
1005 35 8
1006 35 5
1007 35 2
1008 36 47
1009 36 58
1010 36 69
1011 36 80
1012 36 45
1013 36 54
1014 36 63
1015 36 72
1016 36 81
1017 36 37
1018 36 38
1019 36 39
1020 36 40
1021 36 46
1022 36 56
1023 36 66
1024 36 76
1025 36 86
1026 36 96
1027 36 35
1028 36 34
1029 36 33
1030 36 32
1031 36 31
1032 36 27
1033 36 26
1034 36 25
1035 36 18
1036 36 16
1037 36 14
1038 36 9
1039 36 6
1040 36 3
1041 37 48
1042 37 59
1043 37 70
1044 37 46
1045 37 55
1046 37 64
1047 37 73
1048 37 82
1049 37 91
1050 37 38
1051 37 39
1052 37 40
1053 37 47
1054 37 57
1055 37 67
1056 37 77
1057 37 87
1058 37 97
1059 37 36
1060 37 35
1061 37 34
1062 37 33
1063 37 32
1064 37 31
1065 37 28
1066 37 27
1067 37 26
1068 37 19
1069 37 17
1070 37 15
1071 37 10
1072 37 7
1073 37 4
1074 38 49
1075 38 60
1076 38 47
1077 38 56
1078 38 65
1079 38 74
1080 38 83
1081 38 92
1082 38 39
1083 38 40
1084 38 48
1085 38 58
1086 38 68
1087 38 78
1088 38 88
1089 38 98
1090 38 37
1091 38 36
1092 38 35
1093 38 34
1094 38 33
1095 38 32
1096 38 31
1097 38 29
1098 38 28
1099 38 27
1100 38 20
1101 38 18
1102 38 16
1103 38 8
1104 38 5
1105 39 50
1106 39 48
1107 39 57
1108 39 66
1109 39 75
1110 39 84
1111 39 93
1112 39 40
1113 39 49
1114 39 59
1115 39 69
1116 39 79
1117 39 89
1118 39 99
1119 39 38
1120 39 37
1121 39 36
1122 39 35
1123 39 34
1124 39 33
1125 39 32
1126 39 31
1127 39 30
1128 39 29
1129 39 28
1130 39 19
1131 39 17
1132 39 9
1133 39 6
1134 40 49
1135 40 58
1136 40 67
1137 40 76
1138 40 85
1139 40 94
1140 40 50
1141 40 60
1142 40 70
1143 40 80
1144 40 90
1145 40 100
1146 40 39
1147 40 38
1148 40 37
1149 40 36
1150 40 35
1151 40 34
1152 40 33
1153 40 32
1154 40 31
1155 40 30
1156 40 29
1157 40 20
1158 40 18
1159 40 10
1160 40 7
1161 41 52
1162 41 63
1163 41 74
1164 41 85
1165 41 96
1166 41 42
1167 41 43
1168 41 44
1169 41 45
1170 41 46
1171 41 47
1172 41 48
1173 41 49
1174 41 50
1175 41 51
1176 41 61
1177 41 71
1178 41 81
1179 41 91
1180 41 32
1181 41 31
1182 41 23
1183 41 21
1184 41 14
1185 41 11
1186 41 5
1187 41 1
1188 42 53
1189 42 64
1190 42 75
1191 42 86
1192 42 97
1193 42 51
1194 42 43
1195 42 44
1196 42 45
1197 42 46
1198 42 47
1199 42 48
1200 42 49
1201 42 50
1202 42 52
1203 42 62
1204 42 72
1205 42 82
1206 42 92
1207 42 41
1208 42 33
1209 42 32
1210 42 31
1211 42 24
1212 42 22
1213 42 15
1214 42 12
1215 42 6
1216 42 2
1217 43 54
1218 43 65
1219 43 76
1220 43 87
1221 43 98
1222 43 52
1223 43 61
1224 43 44
1225 43 45
1226 43 46
1227 43 47
1228 43 48
1229 43 49
1230 43 50
1231 43 53
1232 43 63
1233 43 73
1234 43 83
1235 43 93
1236 43 42
1237 43 41
1238 43 34
1239 43 33
1240 43 32
1241 43 25
1242 43 23
1243 43 21
1244 43 16
1245 43 13
1246 43 7
1247 43 3
1248 44 55
1249 44 66
1250 44 77
1251 44 88
1252 44 99
1253 44 53
1254 44 62
1255 44 71
1256 44 45
1257 44 46
1258 44 47
1259 44 48
1260 44 49
1261 44 50
1262 44 54
1263 44 64
1264 44 74
1265 44 84
1266 44 94
1267 44 43
1268 44 42
1269 44 41
1270 44 35
1271 44 34
1272 44 33
1273 44 26
1274 44 24
1275 44 22
1276 44 17
1277 44 14
1278 44 11
1279 44 8
1280 44 4
1281 45 56
1282 45 67
1283 45 78
1284 45 89
1285 45 100
1286 45 54
1287 45 63
1288 45 72
1289 45 81
1290 45 46
1291 45 47
1292 45 48
1293 45 49
1294 45 50
1295 45 55
1296 45 65
1297 45 75
1298 45 85
1299 45 95
1300 45 44
1301 45 43
1302 45 42
1303 45 41
1304 45 36
1305 45 35
1306 45 34
1307 45 27
1308 45 25
1309 45 23
1310 45 18
1311 45 15
1312 45 12
1313 45 9
1314 45 5
1315 45 1
1316 46 57
1317 46 68
1318 46 79
1319 46 90
1320 46 55
1321 46 64
1322 46 73
1323 46 82
1324 46 91
1325 46 47
1326 46 48
1327 46 49
1328 46 50
1329 46 56
1330 46 66
1331 46 76
1332 46 86
1333 46 96
1334 46 45
1335 46 44
1336 46 43
1337 46 42
1338 46 41
1339 46 37
1340 46 36
1341 46 35
1342 46 28
1343 46 26
1344 46 24
1345 46 19
1346 46 16
1347 46 13
1348 46 10
1349 46 6
1350 46 2
1351 47 58
1352 47 69
1353 47 80
1354 47 56
1355 47 65
1356 47 74
1357 47 83
1358 47 92
1359 47 48
1360 47 49
1361 47 50
1362 47 57
1363 47 67
1364 47 77
1365 47 87
1366 47 97
1367 47 46
1368 47 45
1369 47 44
1370 47 43
1371 47 42
1372 47 41
1373 47 38
1374 47 37
1375 47 36
1376 47 29
1377 47 27
1378 47 25
1379 47 20
1380 47 17
1381 47 14
1382 47 7
1383 47 3
1384 48 59
1385 48 70
1386 48 57
1387 48 66
1388 48 75
1389 48 84
1390 48 93
1391 48 49
1392 48 50
1393 48 58
1394 48 68
1395 48 78
1396 48 88
1397 48 98
1398 48 47
1399 48 46
1400 48 45
1401 48 44
1402 48 43
1403 48 42
1404 48 41
1405 48 39
1406 48 38
1407 48 37
1408 48 30
1409 48 28
1410 48 26
1411 48 18
1412 48 15
1413 48 8
1414 48 4
1415 49 60
1416 49 58
1417 49 67
1418 49 76
1419 49 85
1420 49 94
1421 49 50
1422 49 59
1423 49 69
1424 49 79
1425 49 89
1426 49 99
1427 49 48
1428 49 47
1429 49 46
1430 49 45
1431 49 44
1432 49 43
1433 49 42
1434 49 41
1435 49 40
1436 49 39
1437 49 38
1438 49 29
1439 49 27
1440 49 19
1441 49 16
1442 49 9
1443 49 5
1444 50 59
1445 50 68
1446 50 77
1447 50 86
1448 50 95
1449 50 60
1450 50 70
1451 50 80
1452 50 90
1453 50 100
1454 50 49
1455 50 48
1456 50 47
1457 50 46
1458 50 45
1459 50 44
1460 50 43
1461 50 42
1462 50 41
1463 50 40
1464 50 39
1465 50 30
1466 50 28
1467 50 20
1468 50 17
1469 50 10
1470 50 6
1471 51 62
1472 51 73
1473 51 84
1474 51 95
1475 51 52
1476 51 53
1477 51 54
1478 51 55
1479 51 56
1480 51 57
1481 51 58
1482 51 59
1483 51 60
1484 51 61
1485 51 71
1486 51 81
1487 51 91
1488 51 42
1489 51 41
1490 51 33
1491 51 31
1492 51 24
1493 51 21
1494 51 15
1495 51 11
1496 51 6
1497 51 1
1498 52 63
1499 52 74
1500 52 85
1501 52 96
1502 52 61
1503 52 53
1504 52 54
1505 52 55
1506 52 56
1507 52 57
1508 52 58
1509 52 59
1510 52 60
1511 52 62
1512 52 72
1513 52 82
1514 52 92
1515 52 51
1516 52 43
1517 52 42
1518 52 41
1519 52 34
1520 52 32
1521 52 25
1522 52 22
1523 52 16
1524 52 12
1525 52 7
1526 52 2
1527 53 64
1528 53 75
1529 53 86
1530 53 97
1531 53 62
1532 53 71
1533 53 54
1534 53 55
1535 53 56
1536 53 57
1537 53 58
1538 53 59
1539 53 60
1540 53 63
1541 53 73
1542 53 83
1543 53 93
1544 53 52
1545 53 51
1546 53 44
1547 53 43
1548 53 42
1549 53 35
1550 53 33
1551 53 31
1552 53 26
1553 53 23
1554 53 17
1555 53 13
1556 53 8
1557 53 3
1558 54 65
1559 54 76
1560 54 87
1561 54 98
1562 54 63
1563 54 72
1564 54 81
1565 54 55
1566 54 56
1567 54 57
1568 54 58
1569 54 59
1570 54 60
1571 54 64
1572 54 74
1573 54 84
1574 54 94
1575 54 53
1576 54 52
1577 54 51
1578 54 45
1579 54 44
1580 54 43
1581 54 36
1582 54 34
1583 54 32
1584 54 27
1585 54 24
1586 54 21
1587 54 18
1588 54 14
1589 54 9
1590 54 4
1591 55 66
1592 55 77
1593 55 88
1594 55 99
1595 55 64
1596 55 73
1597 55 82
1598 55 91
1599 55 56
1600 55 57
1601 55 58
1602 55 59
1603 55 60
1604 55 65
1605 55 75
1606 55 85
1607 55 95
1608 55 54
1609 55 53
1610 55 52
1611 55 51
1612 55 46
1613 55 45
1614 55 44
1615 55 37
1616 55 35
1617 55 33
1618 55 28
1619 55 25
1620 55 22
1621 55 19
1622 55 15
1623 55 11
1624 55 10
1625 55 5
1626 56 67
1627 56 78
1628 56 89
1629 56 100
1630 56 65
1631 56 74
1632 56 83
1633 56 92
1634 56 57
1635 56 58
1636 56 59
1637 56 60
1638 56 66
1639 56 76
1640 56 86
1641 56 96
1642 56 55
1643 56 54
1644 56 53
1645 56 52
1646 56 51
1647 56 47
1648 56 46
1649 56 45
1650 56 38
1651 56 36
1652 56 34
1653 56 29
1654 56 26
1655 56 23
1656 56 20
1657 56 16
1658 56 12
1659 56 6
1660 56 1
1661 57 68
1662 57 79
1663 57 90
1664 57 66
1665 57 75
1666 57 84
1667 57 93
1668 57 58
1669 57 59
1670 57 60
1671 57 67
1672 57 77
1673 57 87
1674 57 97
1675 57 56
1676 57 55
1677 57 54
1678 57 53
1679 57 52
1680 57 51
1681 57 48
1682 57 47
1683 57 46
1684 57 39
1685 57 37
1686 57 35
1687 57 30
1688 57 27
1689 57 24
1690 57 17
1691 57 13
1692 57 7
1693 57 2
1694 58 69
1695 58 80
1696 58 67
1697 58 76
1698 58 85
1699 58 94
1700 58 59
1701 58 60
1702 58 68
1703 58 78
1704 58 88
1705 58 98
1706 58 57
1707 58 56
1708 58 55
1709 58 54
1710 58 53
1711 58 52
1712 58 51
1713 58 49
1714 58 48
1715 58 47
1716 58 40
1717 58 38
1718 58 36
1719 58 28
1720 58 25
1721 58 18
1722 58 14
1723 58 8
1724 58 3
1725 59 70
1726 59 68
1727 59 77
1728 59 86
1729 59 95
1730 59 60
1731 59 69
1732 59 79
1733 59 89
1734 59 99
1735 59 58
1736 59 57
1737 59 56
1738 59 55
1739 59 54
1740 59 53
1741 59 52
1742 59 51
1743 59 50
1744 59 49
1745 59 48
1746 59 39
1747 59 37
1748 59 29
1749 59 26
1750 59 19
1751 59 15
1752 59 9
1753 59 4
1754 60 69
1755 60 78
1756 60 87
1757 60 96
1758 60 70
1759 60 80
1760 60 90
1761 60 100
1762 60 59
1763 60 58
1764 60 57
1765 60 56
1766 60 55
1767 60 54
1768 60 53
1769 60 52
1770 60 51
1771 60 50
1772 60 49
1773 60 40
1774 60 38
1775 60 30
1776 60 27
1777 60 20
1778 60 16
1779 60 10
1780 60 5
1781 61 72
1782 61 83
1783 61 94
1784 61 62
1785 61 63
1786 61 64
1787 61 65
1788 61 66
1789 61 67
1790 61 68
1791 61 69
1792 61 70
1793 61 71
1794 61 81
1795 61 91
1796 61 52
1797 61 51
1798 61 43
1799 61 41
1800 61 34
1801 61 31
1802 61 25
1803 61 21
1804 61 16
1805 61 11
1806 61 7
1807 61 1
1808 62 73
1809 62 84
1810 62 95
1811 62 71
1812 62 63
1813 62 64
1814 62 65
1815 62 66
1816 62 67
1817 62 68
1818 62 69
1819 62 70
1820 62 72
1821 62 82
1822 62 92
1823 62 61
1824 62 53
1825 62 52
1826 62 51
1827 62 44
1828 62 42
1829 62 35
1830 62 32
1831 62 26
1832 62 22
1833 62 17
1834 62 12
1835 62 8
1836 62 2
1837 63 74
1838 63 85
1839 63 96
1840 63 72
1841 63 81
1842 63 64
1843 63 65
1844 63 66
1845 63 67
1846 63 68
1847 63 69
1848 63 70
1849 63 73
1850 63 83
1851 63 93
1852 63 62
1853 63 61
1854 63 54
1855 63 53
1856 63 52
1857 63 45
1858 63 43
1859 63 41
1860 63 36
1861 63 33
1862 63 27
1863 63 23
1864 63 18
1865 63 13
1866 63 9
1867 63 3
1868 64 75
1869 64 86
1870 64 97
1871 64 73
1872 64 82
1873 64 91
1874 64 65
1875 64 66
1876 64 67
1877 64 68
1878 64 69
1879 64 70
1880 64 74
1881 64 84
1882 64 94
1883 64 63
1884 64 62
1885 64 61
1886 64 55
1887 64 54
1888 64 53
1889 64 46
1890 64 44
1891 64 42
1892 64 37
1893 64 34
1894 64 31
1895 64 28
1896 64 24
1897 64 19
1898 64 14
1899 64 10
1900 64 4
1901 65 76
1902 65 87
1903 65 98
1904 65 74
1905 65 83
1906 65 92
1907 65 66
1908 65 67
1909 65 68
1910 65 69
1911 65 70
1912 65 75
1913 65 85
1914 65 95
1915 65 64
1916 65 63
1917 65 62
1918 65 61
1919 65 56
1920 65 55
1921 65 54
1922 65 47
1923 65 45
1924 65 43
1925 65 38
1926 65 35
1927 65 32
1928 65 29
1929 65 25
1930 65 21
1931 65 20
1932 65 15
1933 65 5
1934 66 77
1935 66 88
1936 66 99
1937 66 75
1938 66 84
1939 66 93
1940 66 67
1941 66 68
1942 66 69
1943 66 70
1944 66 76
1945 66 86
1946 66 96
1947 66 65
1948 66 64
1949 66 63
1950 66 62
1951 66 61
1952 66 57
1953 66 56
1954 66 55
1955 66 48
1956 66 46
1957 66 44
1958 66 39
1959 66 36
1960 66 33
1961 66 30
1962 66 26
1963 66 22
1964 66 16
1965 66 11
1966 66 6
1967 67 78
1968 67 89
1969 67 100
1970 67 76
1971 67 85
1972 67 94
1973 67 68
1974 67 69
1975 67 70
1976 67 77
1977 67 87
1978 67 97
1979 67 66
1980 67 65
1981 67 64
1982 67 63
1983 67 62
1984 67 61
1985 67 58
1986 67 57
1987 67 56
1988 67 49
1989 67 47
1990 67 45
1991 67 40
1992 67 37
1993 67 34
1994 67 27
1995 67 23
1996 67 17
1997 67 12
1998 67 7
1999 67 1
2000 68 79
2001 68 90
2002 68 77
2003 68 86
2004 68 95
2005 68 69
2006 68 70
2007 68 78
2008 68 88
2009 68 98
2010 68 67
2011 68 66
2012 68 65
2013 68 64
2014 68 63
2015 68 62
2016 68 61
2017 68 59
2018 68 58
2019 68 57
2020 68 50
2021 68 48
2022 68 46
2023 68 38
2024 68 35
2025 68 28
2026 68 24
2027 68 18
2028 68 13
2029 68 8
2030 68 2
2031 69 80
2032 69 78
2033 69 87
2034 69 96
2035 69 70
2036 69 79
2037 69 89
2038 69 99
2039 69 68
2040 69 67
2041 69 66
2042 69 65
2043 69 64
2044 69 63
2045 69 62
2046 69 61
2047 69 60
2048 69 59
2049 69 58
2050 69 49
2051 69 47
2052 69 39
2053 69 36
2054 69 29
2055 69 25
2056 69 19
2057 69 14
2058 69 9
2059 69 3
2060 70 79
2061 70 88
2062 70 97
2063 70 80
2064 70 90
2065 70 100
2066 70 69
2067 70 68
2068 70 67
2069 70 66
2070 70 65
2071 70 64
2072 70 63
2073 70 62
2074 70 61
2075 70 60
2076 70 59
2077 70 50
2078 70 48
2079 70 40
2080 70 37
2081 70 30
2082 70 26
2083 70 20
2084 70 15
2085 70 10
2086 70 4
2087 71 82
2088 71 93
2089 71 72
2090 71 73
2091 71 74
2092 71 75
2093 71 76
2094 71 77
2095 71 78
2096 71 79
2097 71 80
2098 71 81
2099 71 91
2100 71 62
2101 71 61
2102 71 53
2103 71 51
2104 71 44
2105 71 41
2106 71 35
2107 71 31
2108 71 26
2109 71 21
2110 71 17
2111 71 11
2112 71 8
2113 71 1
2114 72 83
2115 72 94
2116 72 81
2117 72 73
2118 72 74
2119 72 75
2120 72 76
2121 72 77
2122 72 78
2123 72 79
2124 72 80
2125 72 82
2126 72 92
2127 72 71
2128 72 63
2129 72 62
2130 72 61
2131 72 54
2132 72 52
2133 72 45
2134 72 42
2135 72 36
2136 72 32
2137 72 27
2138 72 22
2139 72 18
2140 72 12
2141 72 9
2142 72 2
2143 73 84
2144 73 95
2145 73 82
2146 73 91
2147 73 74
2148 73 75
2149 73 76
2150 73 77
2151 73 78
2152 73 79
2153 73 80
2154 73 83
2155 73 93
2156 73 72
2157 73 71
2158 73 64
2159 73 63
2160 73 62
2161 73 55
2162 73 53
2163 73 51
2164 73 46
2165 73 43
2166 73 37
2167 73 33
2168 73 28
2169 73 23
2170 73 19
2171 73 13
2172 73 10
2173 73 3
2174 74 85
2175 74 96
2176 74 83
2177 74 92
2178 74 75
2179 74 76
2180 74 77
2181 74 78
2182 74 79
2183 74 80
2184 74 84
2185 74 94
2186 74 73
2187 74 72
2188 74 71
2189 74 65
2190 74 64
2191 74 63
2192 74 56
2193 74 54
2194 74 52
2195 74 47
2196 74 44
2197 74 41
2198 74 38
2199 74 34
2200 74 29
2201 74 24
2202 74 20
2203 74 14
2204 74 4
2205 75 86
2206 75 97
2207 75 84
2208 75 93
2209 75 76
2210 75 77
2211 75 78
2212 75 79
2213 75 80
2214 75 85
2215 75 95
2216 75 74
2217 75 73
2218 75 72
2219 75 71
2220 75 66
2221 75 65
2222 75 64
2223 75 57
2224 75 55
2225 75 53
2226 75 48
2227 75 45
2228 75 42
2229 75 39
2230 75 35
2231 75 31
2232 75 30
2233 75 25
2234 75 15
2235 75 5
2236 76 87
2237 76 98
2238 76 85
2239 76 94
2240 76 77
2241 76 78
2242 76 79
2243 76 80
2244 76 86
2245 76 96
2246 76 75
2247 76 74
2248 76 73
2249 76 72
2250 76 71
2251 76 67
2252 76 66
2253 76 65
2254 76 58
2255 76 56
2256 76 54
2257 76 49
2258 76 46
2259 76 43
2260 76 40
2261 76 36
2262 76 32
2263 76 26
2264 76 21
2265 76 16
2266 76 6
2267 77 88
2268 77 99
2269 77 86
2270 77 95
2271 77 78
2272 77 79
2273 77 80
2274 77 87
2275 77 97
2276 77 76
2277 77 75
2278 77 74
2279 77 73
2280 77 72
2281 77 71
2282 77 68
2283 77 67
2284 77 66
2285 77 59
2286 77 57
2287 77 55
2288 77 50
2289 77 47
2290 77 44
2291 77 37
2292 77 33
2293 77 27
2294 77 22
2295 77 17
2296 77 11
2297 77 7
2298 78 89
2299 78 100
2300 78 87
2301 78 96
2302 78 79
2303 78 80
2304 78 88
2305 78 98
2306 78 77
2307 78 76
2308 78 75
2309 78 74
2310 78 73
2311 78 72
2312 78 71
2313 78 69
2314 78 68
2315 78 67
2316 78 60
2317 78 58
2318 78 56
2319 78 48
2320 78 45
2321 78 38
2322 78 34
2323 78 28
2324 78 23
2325 78 18
2326 78 12
2327 78 8
2328 78 1
2329 79 90
2330 79 88
2331 79 97
2332 79 80
2333 79 89
2334 79 99
2335 79 78
2336 79 77
2337 79 76
2338 79 75
2339 79 74
2340 79 73
2341 79 72
2342 79 71
2343 79 70
2344 79 69
2345 79 68
2346 79 59
2347 79 57
2348 79 49
2349 79 46
2350 79 39
2351 79 35
2352 79 29
2353 79 24
2354 79 19
2355 79 13
2356 79 9
2357 79 2
2358 80 89
2359 80 98
2360 80 90
2361 80 100
2362 80 79
2363 80 78
2364 80 77
2365 80 76
2366 80 75
2367 80 74
2368 80 73
2369 80 72
2370 80 71
2371 80 70
2372 80 69
2373 80 60
2374 80 58
2375 80 50
2376 80 47
2377 80 40
2378 80 36
2379 80 30
2380 80 25
2381 80 20
2382 80 14
2383 80 10
2384 80 3
2385 81 92
2386 81 82
2387 81 83
2388 81 84
2389 81 85
2390 81 86
2391 81 87
2392 81 88
2393 81 89
2394 81 90
2395 81 91
2396 81 72
2397 81 71
2398 81 63
2399 81 61
2400 81 54
2401 81 51
2402 81 45
2403 81 41
2404 81 36
2405 81 31
2406 81 27
2407 81 21
2408 81 18
2409 81 11
2410 81 9
2411 81 1
2412 82 93
2413 82 91
2414 82 83
2415 82 84
2416 82 85
2417 82 86
2418 82 87
2419 82 88
2420 82 89
2421 82 90
2422 82 92
2423 82 81
2424 82 73
2425 82 72
2426 82 71
2427 82 64
2428 82 62
2429 82 55
2430 82 52
2431 82 46
2432 82 42
2433 82 37
2434 82 32
2435 82 28
2436 82 22
2437 82 19
2438 82 12
2439 82 10
2440 82 2
2441 83 94
2442 83 92
2443 83 84
2444 83 85
2445 83 86
2446 83 87
2447 83 88
2448 83 89
2449 83 90
2450 83 93
2451 83 82
2452 83 81
2453 83 74
2454 83 73
2455 83 72
2456 83 65
2457 83 63
2458 83 61
2459 83 56
2460 83 53
2461 83 47
2462 83 43
2463 83 38
2464 83 33
2465 83 29
2466 83 23
2467 83 20
2468 83 13
2469 83 3
2470 84 95
2471 84 93
2472 84 85
2473 84 86
2474 84 87
2475 84 88
2476 84 89
2477 84 90
2478 84 94
2479 84 83
2480 84 82
2481 84 81
2482 84 75
2483 84 74
2484 84 73
2485 84 66
2486 84 64
2487 84 62
2488 84 57
2489 84 54
2490 84 51
2491 84 48
2492 84 44
2493 84 39
2494 84 34
2495 84 30
2496 84 24
2497 84 14
2498 84 4
2499 85 96
2500 85 94
2501 85 86
2502 85 87
2503 85 88
2504 85 89
2505 85 90
2506 85 95
2507 85 84
2508 85 83
2509 85 82
2510 85 81
2511 85 76
2512 85 75
2513 85 74
2514 85 67
2515 85 65
2516 85 63
2517 85 58
2518 85 55
2519 85 52
2520 85 49
2521 85 45
2522 85 41
2523 85 40
2524 85 35
2525 85 25
2526 85 15
2527 85 5
2528 86 97
2529 86 95
2530 86 87
2531 86 88
2532 86 89
2533 86 90
2534 86 96
2535 86 85
2536 86 84
2537 86 83
2538 86 82
2539 86 81
2540 86 77
2541 86 76
2542 86 75
2543 86 68
2544 86 66
2545 86 64
2546 86 59
2547 86 56
2548 86 53
2549 86 50
2550 86 46
2551 86 42
2552 86 36
2553 86 31
2554 86 26
2555 86 16
2556 86 6
2557 87 98
2558 87 96
2559 87 88
2560 87 89
2561 87 90
2562 87 97
2563 87 86
2564 87 85
2565 87 84
2566 87 83
2567 87 82
2568 87 81
2569 87 78
2570 87 77
2571 87 76
2572 87 69
2573 87 67
2574 87 65
2575 87 60
2576 87 57
2577 87 54
2578 87 47
2579 87 43
2580 87 37
2581 87 32
2582 87 27
2583 87 21
2584 87 17
2585 87 7
2586 88 99
2587 88 97
2588 88 89
2589 88 90
2590 88 98
2591 88 87
2592 88 86
2593 88 85
2594 88 84
2595 88 83
2596 88 82
2597 88 81
2598 88 79
2599 88 78
2600 88 77
2601 88 70
2602 88 68
2603 88 66
2604 88 58
2605 88 55
2606 88 48
2607 88 44
2608 88 38
2609 88 33
2610 88 28
2611 88 22
2612 88 18
2613 88 11
2614 88 8
2615 89 100
2616 89 98
2617 89 90
2618 89 99
2619 89 88
2620 89 87
2621 89 86
2622 89 85
2623 89 84
2624 89 83
2625 89 82
2626 89 81
2627 89 80
2628 89 79
2629 89 78
2630 89 69
2631 89 67
2632 89 59
2633 89 56
2634 89 49
2635 89 45
2636 89 39
2637 89 34
2638 89 29
2639 89 23
2640 89 19
2641 89 12
2642 89 9
2643 89 1
2644 90 99
2645 90 100
2646 90 89
2647 90 88
2648 90 87
2649 90 86
2650 90 85
2651 90 84
2652 90 83
2653 90 82
2654 90 81
2655 90 80
2656 90 79
2657 90 70
2658 90 68
2659 90 60
2660 90 57
2661 90 50
2662 90 46
2663 90 40
2664 90 35
2665 90 30
2666 90 24
2667 90 20
2668 90 13
2669 90 10
2670 90 2
2671 91 92
2672 91 93
2673 91 94
2674 91 95
2675 91 96
2676 91 97
2677 91 98
2678 91 99
2679 91 100
2680 91 82
2681 91 81
2682 91 73
2683 91 71
2684 91 64
2685 91 61
2686 91 55
2687 91 51
2688 91 46
2689 91 41
2690 91 37
2691 91 31
2692 91 28
2693 91 21
2694 91 19
2695 91 11
2696 91 10
2697 91 1
2698 92 93
2699 92 94
2700 92 95
2701 92 96
2702 92 97
2703 92 98
2704 92 99
2705 92 100
2706 92 91
2707 92 83
2708 92 82
2709 92 81
2710 92 74
2711 92 72
2712 92 65
2713 92 62
2714 92 56
2715 92 52
2716 92 47
2717 92 42
2718 92 38
2719 92 32
2720 92 29
2721 92 22
2722 92 20
2723 92 12
2724 92 2
2725 93 94
2726 93 95
2727 93 96
2728 93 97
2729 93 98
2730 93 99
2731 93 100
2732 93 92
2733 93 91
2734 93 84
2735 93 83
2736 93 82
2737 93 75
2738 93 73
2739 93 71
2740 93 66
2741 93 63
2742 93 57
2743 93 53
2744 93 48
2745 93 43
2746 93 39
2747 93 33
2748 93 30
2749 93 23
2750 93 13
2751 93 3
2752 94 95
2753 94 96
2754 94 97
2755 94 98
2756 94 99
2757 94 100
2758 94 93
2759 94 92
2760 94 91
2761 94 85
2762 94 84
2763 94 83
2764 94 76
2765 94 74
2766 94 72
2767 94 67
2768 94 64
2769 94 61
2770 94 58
2771 94 54
2772 94 49
2773 94 44
2774 94 40
2775 94 34
2776 94 24
2777 94 14
2778 94 4
2779 95 96
2780 95 97
2781 95 98
2782 95 99
2783 95 100
2784 95 94
2785 95 93
2786 95 92
2787 95 91
2788 95 86
2789 95 85
2790 95 84
2791 95 77
2792 95 75
2793 95 73
2794 95 68
2795 95 65
2796 95 62
2797 95 59
2798 95 55
2799 95 51
2800 95 50
2801 95 45
2802 95 35
2803 95 25
2804 95 15
2805 95 5
2806 96 97
2807 96 98
2808 96 99
2809 96 100
2810 96 95
2811 96 94
2812 96 93
2813 96 92
2814 96 91
2815 96 87
2816 96 86
2817 96 85
2818 96 78
2819 96 76
2820 96 74
2821 96 69
2822 96 66
2823 96 63
2824 96 60
2825 96 56
2826 96 52
2827 96 46
2828 96 41
2829 96 36
2830 96 26
2831 96 16
2832 96 6
2833 97 98
2834 97 99
2835 97 100
2836 97 96
2837 97 95
2838 97 94
2839 97 93
2840 97 92
2841 97 91
2842 97 88
2843 97 87
2844 97 86
2845 97 79
2846 97 77
2847 97 75
2848 97 70
2849 97 67
2850 97 64
2851 97 57
2852 97 53
2853 97 47
2854 97 42
2855 97 37
2856 97 31
2857 97 27
2858 97 17
2859 97 7
2860 98 99
2861 98 100
2862 98 97
2863 98 96
2864 98 95
2865 98 94
2866 98 93
2867 98 92
2868 98 91
2869 98 89
2870 98 88
2871 98 87
2872 98 80
2873 98 78
2874 98 76
2875 98 68
2876 98 65
2877 98 58
2878 98 54
2879 98 48
2880 98 43
2881 98 38
2882 98 32
2883 98 28
2884 98 21
2885 98 18
2886 98 8
2887 99 100
2888 99 98
2889 99 97
2890 99 96
2891 99 95
2892 99 94
2893 99 93
2894 99 92
2895 99 91
2896 99 90
2897 99 89
2898 99 88
2899 99 79
2900 99 77
2901 99 69
2902 99 66
2903 99 59
2904 99 55
2905 99 49
2906 99 44
2907 99 39
2908 99 33
2909 99 29
2910 99 22
2911 99 19
2912 99 11
2913 99 9
2914 100 99
2915 100 98
2916 100 97
2917 100 96
2918 100 95
2919 100 94
2920 100 93
2921 100 92
2922 100 91
2923 100 90
2924 100 89
2925 100 80
2926 100 78
2927 100 70
2928 100 67
2929 100 60
2930 100 56
2931 100 50
2932 100 45
2933 100 40
2934 100 34
2935 100 30
2936 100 23
2937 100 20
2938 100 12
2939 100 10
2940 100 1